
Gurobi 6.5.2 (linux64) logging started Mon Aug 29 10:57:51 2016

Optimize a model with 41 rows, 77 columns and 157 nonzeros
Coefficient statistics:
  Matrix range    [1e+00, 2e+00]
  Objective range [5e+00, 1e+02]
  Bounds range    [1e+00, 1e+00]
  RHS range       [1e+00, 1e+00]
Found heuristic solution: objective 1080
Presolve removed 20 rows and 18 columns
Presolve time: 0.00s
Presolved: 21 rows, 59 columns, 119 nonzeros
Variable types: 0 continuous, 59 integer (59 binary)

Root relaxation: objective 7.110000e+02, 24 iterations, 0.00 seconds

    Nodes    |    Current Node    |     Objective Bounds      |     Work
 Expl Unexpl |  Obj  Depth IntInf | Incumbent    BestBd   Gap | It/Node Time

*    0     0               0     711.0000000  711.00000  0.00%     -    0s

Explored 0 nodes (24 simplex iterations) in 0.00 seconds
Thread count was 8 (of 8 available processors)

Optimal solution found (tolerance 1.00e-04)
Best objective 7.110000000000e+02, best bound 7.110000000000e+02, gap 0.0%
